/*Função objectivo*/
max: 8x1 + 5x2;

/*Constraints*/

restricao1: 1 x1        <= 150;
restricao2:        1 x2 <= 250;
restricao3: 2 x1 + 1 x2 <= 500;
restricao4:   x1        >= 0;
restricao5:   x2        >= 0;